
#######################################################################
##                                                                   ##
##                  Single chain_4000 beads                          ##
##                         Jan 2017                                  ##
##                                                                   ##
#######################################################################

units		    lj
boundary	    p p p
atom_style	    molecular
read_data	    N90_M_100_P_0_01_contacts_Series.data
#read_restart	restart.Chain90_M_100_eta_11_series.70000000

variable        root index N90_M_100_P_0_01_E_11_Series
variable        Nf equal 10000
variable        Ne equal 100
variable        Nr equal ${Nf}/${Ne}
variable        Nrestart equal 10000000

variable	RandGen equal 1797#1011
variable        Nrun equal 100000000#100000000
variable        Ndump equal 10000
variable	epsilon equal 11

########################((General information))#######################

compute         xAtom all property/atom x y z


variable 	 x1_1 equal c_xAtom[1][1]
variable 	 y1_1 equal c_xAtom[1][2]
variable 	 z1_1 equal c_xAtom[1][3]
variable 	 x1_2 equal c_xAtom[30][1]
variable 	 y1_2 equal c_xAtom[30][2]
variable 	 z1_2 equal c_xAtom[30][3]
variable 	 x1_3 equal c_xAtom[60][1]
variable 	 y1_3 equal c_xAtom[60][2]
variable 	 z1_3 equal c_xAtom[60][3]
variable 	 x1_4 equal c_xAtom[90][1]
variable 	 y1_4 equal c_xAtom[90][2]
variable 	 z1_4 equal c_xAtom[90][3]
variable 	 x2_1 equal c_xAtom[91][1]
variable 	 y2_1 equal c_xAtom[91][2]
variable 	 z2_1 equal c_xAtom[91][3]
variable 	 x2_2 equal c_xAtom[120][1]
variable 	 y2_2 equal c_xAtom[120][2]
variable 	 z2_2 equal c_xAtom[120][3]
variable 	 x2_3 equal c_xAtom[150][1]
variable 	 y2_3 equal c_xAtom[150][2]
variable 	 z2_3 equal c_xAtom[150][3]
variable 	 x2_4 equal c_xAtom[180][1]
variable 	 y2_4 equal c_xAtom[180][2]
variable 	 z2_4 equal c_xAtom[180][3]
variable 	 x3_1 equal c_xAtom[181][1]
variable 	 y3_1 equal c_xAtom[181][2]
variable 	 z3_1 equal c_xAtom[181][3]
variable 	 x3_2 equal c_xAtom[210][1]
variable 	 y3_2 equal c_xAtom[210][2]
variable 	 z3_2 equal c_xAtom[210][3]
variable 	 x3_3 equal c_xAtom[240][1]
variable 	 y3_3 equal c_xAtom[240][2]
variable 	 z3_3 equal c_xAtom[240][3]
variable 	 x3_4 equal c_xAtom[270][1]
variable 	 y3_4 equal c_xAtom[270][2]
variable 	 z3_4 equal c_xAtom[270][3]
variable 	 x4_1 equal c_xAtom[271][1]
variable 	 y4_1 equal c_xAtom[271][2]
variable 	 z4_1 equal c_xAtom[271][3]
variable 	 x4_2 equal c_xAtom[300][1]
variable 	 y4_2 equal c_xAtom[300][2]
variable 	 z4_2 equal c_xAtom[300][3]
variable 	 x4_3 equal c_xAtom[330][1]
variable 	 y4_3 equal c_xAtom[330][2]
variable 	 z4_3 equal c_xAtom[330][3]
variable 	 x4_4 equal c_xAtom[360][1]
variable 	 y4_4 equal c_xAtom[360][2]
variable 	 z4_4 equal c_xAtom[360][3]
variable 	 x5_1 equal c_xAtom[361][1]
variable 	 y5_1 equal c_xAtom[361][2]
variable 	 z5_1 equal c_xAtom[361][3]
variable 	 x5_2 equal c_xAtom[390][1]
variable 	 y5_2 equal c_xAtom[390][2]
variable 	 z5_2 equal c_xAtom[390][3]
variable 	 x5_3 equal c_xAtom[420][1]
variable 	 y5_3 equal c_xAtom[420][2]
variable 	 z5_3 equal c_xAtom[420][3]
variable 	 x5_4 equal c_xAtom[450][1]
variable 	 y5_4 equal c_xAtom[450][2]
variable 	 z5_4 equal c_xAtom[450][3]
variable 	 x6_1 equal c_xAtom[451][1]
variable 	 y6_1 equal c_xAtom[451][2]
variable 	 z6_1 equal c_xAtom[451][3]
variable 	 x6_2 equal c_xAtom[480][1]
variable 	 y6_2 equal c_xAtom[480][2]
variable 	 z6_2 equal c_xAtom[480][3]
variable 	 x6_3 equal c_xAtom[510][1]
variable 	 y6_3 equal c_xAtom[510][2]
variable 	 z6_3 equal c_xAtom[510][3]
variable 	 x6_4 equal c_xAtom[540][1]
variable 	 y6_4 equal c_xAtom[540][2]
variable 	 z6_4 equal c_xAtom[540][3]
variable 	 x7_1 equal c_xAtom[541][1]
variable 	 y7_1 equal c_xAtom[541][2]
variable 	 z7_1 equal c_xAtom[541][3]
variable 	 x7_2 equal c_xAtom[570][1]
variable 	 y7_2 equal c_xAtom[570][2]
variable 	 z7_2 equal c_xAtom[570][3]
variable 	 x7_3 equal c_xAtom[600][1]
variable 	 y7_3 equal c_xAtom[600][2]
variable 	 z7_3 equal c_xAtom[600][3]
variable 	 x7_4 equal c_xAtom[630][1]
variable 	 y7_4 equal c_xAtom[630][2]
variable 	 z7_4 equal c_xAtom[630][3]
variable 	 x8_1 equal c_xAtom[631][1]
variable 	 y8_1 equal c_xAtom[631][2]
variable 	 z8_1 equal c_xAtom[631][3]
variable 	 x8_2 equal c_xAtom[660][1]
variable 	 y8_2 equal c_xAtom[660][2]
variable 	 z8_2 equal c_xAtom[660][3]
variable 	 x8_3 equal c_xAtom[690][1]
variable 	 y8_3 equal c_xAtom[690][2]
variable 	 z8_3 equal c_xAtom[690][3]
variable 	 x8_4 equal c_xAtom[720][1]
variable 	 y8_4 equal c_xAtom[720][2]
variable 	 z8_4 equal c_xAtom[720][3]
variable 	 x9_1 equal c_xAtom[721][1]
variable 	 y9_1 equal c_xAtom[721][2]
variable 	 z9_1 equal c_xAtom[721][3]
variable 	 x9_2 equal c_xAtom[750][1]
variable 	 y9_2 equal c_xAtom[750][2]
variable 	 z9_2 equal c_xAtom[750][3]
variable 	 x9_3 equal c_xAtom[780][1]
variable 	 y9_3 equal c_xAtom[780][2]
variable 	 z9_3 equal c_xAtom[780][3]
variable 	 x9_4 equal c_xAtom[810][1]
variable 	 y9_4 equal c_xAtom[810][2]
variable 	 z9_4 equal c_xAtom[810][3]
variable 	 x10_1 equal c_xAtom[811][1]
variable 	 y10_1 equal c_xAtom[811][2]
variable 	 z10_1 equal c_xAtom[811][3]
variable 	 x10_2 equal c_xAtom[840][1]
variable 	 y10_2 equal c_xAtom[840][2]
variable 	 z10_2 equal c_xAtom[840][3]
variable 	 x10_3 equal c_xAtom[870][1]
variable 	 y10_3 equal c_xAtom[870][2]
variable 	 z10_3 equal c_xAtom[870][3]
variable 	 x10_4 equal c_xAtom[900][1]
variable 	 y10_4 equal c_xAtom[900][2]
variable 	 z10_4 equal c_xAtom[900][3]
variable 	 x11_1 equal c_xAtom[901][1]
variable 	 y11_1 equal c_xAtom[901][2]
variable 	 z11_1 equal c_xAtom[901][3]
variable 	 x11_2 equal c_xAtom[930][1]
variable 	 y11_2 equal c_xAtom[930][2]
variable 	 z11_2 equal c_xAtom[930][3]
variable 	 x11_3 equal c_xAtom[960][1]
variable 	 y11_3 equal c_xAtom[960][2]
variable 	 z11_3 equal c_xAtom[960][3]
variable 	 x11_4 equal c_xAtom[990][1]
variable 	 y11_4 equal c_xAtom[990][2]
variable 	 z11_4 equal c_xAtom[990][3]
variable 	 x12_1 equal c_xAtom[991][1]
variable 	 y12_1 equal c_xAtom[991][2]
variable 	 z12_1 equal c_xAtom[991][3]
variable 	 x12_2 equal c_xAtom[1020][1]
variable 	 y12_2 equal c_xAtom[1020][2]
variable 	 z12_2 equal c_xAtom[1020][3]
variable 	 x12_3 equal c_xAtom[1050][1]
variable 	 y12_3 equal c_xAtom[1050][2]
variable 	 z12_3 equal c_xAtom[1050][3]
variable 	 x12_4 equal c_xAtom[1080][1]
variable 	 y12_4 equal c_xAtom[1080][2]
variable 	 z12_4 equal c_xAtom[1080][3]
variable 	 x13_1 equal c_xAtom[1081][1]
variable 	 y13_1 equal c_xAtom[1081][2]
variable 	 z13_1 equal c_xAtom[1081][3]
variable 	 x13_2 equal c_xAtom[1110][1]
variable 	 y13_2 equal c_xAtom[1110][2]
variable 	 z13_2 equal c_xAtom[1110][3]
variable 	 x13_3 equal c_xAtom[1140][1]
variable 	 y13_3 equal c_xAtom[1140][2]
variable 	 z13_3 equal c_xAtom[1140][3]
variable 	 x13_4 equal c_xAtom[1170][1]
variable 	 y13_4 equal c_xAtom[1170][2]
variable 	 z13_4 equal c_xAtom[1170][3]
variable 	 x14_1 equal c_xAtom[1171][1]
variable 	 y14_1 equal c_xAtom[1171][2]
variable 	 z14_1 equal c_xAtom[1171][3]
variable 	 x14_2 equal c_xAtom[1200][1]
variable 	 y14_2 equal c_xAtom[1200][2]
variable 	 z14_2 equal c_xAtom[1200][3]
variable 	 x14_3 equal c_xAtom[1230][1]
variable 	 y14_3 equal c_xAtom[1230][2]
variable 	 z14_3 equal c_xAtom[1230][3]
variable 	 x14_4 equal c_xAtom[1260][1]
variable 	 y14_4 equal c_xAtom[1260][2]
variable 	 z14_4 equal c_xAtom[1260][3]
variable 	 x15_1 equal c_xAtom[1261][1]
variable 	 y15_1 equal c_xAtom[1261][2]
variable 	 z15_1 equal c_xAtom[1261][3]
variable 	 x15_2 equal c_xAtom[1290][1]
variable 	 y15_2 equal c_xAtom[1290][2]
variable 	 z15_2 equal c_xAtom[1290][3]
variable 	 x15_3 equal c_xAtom[1320][1]
variable 	 y15_3 equal c_xAtom[1320][2]
variable 	 z15_3 equal c_xAtom[1320][3]
variable 	 x15_4 equal c_xAtom[1350][1]
variable 	 y15_4 equal c_xAtom[1350][2]
variable 	 z15_4 equal c_xAtom[1350][3]
variable 	 x16_1 equal c_xAtom[1351][1]
variable 	 y16_1 equal c_xAtom[1351][2]
variable 	 z16_1 equal c_xAtom[1351][3]
variable 	 x16_2 equal c_xAtom[1380][1]
variable 	 y16_2 equal c_xAtom[1380][2]
variable 	 z16_2 equal c_xAtom[1380][3]
variable 	 x16_3 equal c_xAtom[1410][1]
variable 	 y16_3 equal c_xAtom[1410][2]
variable 	 z16_3 equal c_xAtom[1410][3]
variable 	 x16_4 equal c_xAtom[1440][1]
variable 	 y16_4 equal c_xAtom[1440][2]
variable 	 z16_4 equal c_xAtom[1440][3]
variable 	 x17_1 equal c_xAtom[1441][1]
variable 	 y17_1 equal c_xAtom[1441][2]
variable 	 z17_1 equal c_xAtom[1441][3]
variable 	 x17_2 equal c_xAtom[1470][1]
variable 	 y17_2 equal c_xAtom[1470][2]
variable 	 z17_2 equal c_xAtom[1470][3]
variable 	 x17_3 equal c_xAtom[1500][1]
variable 	 y17_3 equal c_xAtom[1500][2]
variable 	 z17_3 equal c_xAtom[1500][3]
variable 	 x17_4 equal c_xAtom[1530][1]
variable 	 y17_4 equal c_xAtom[1530][2]
variable 	 z17_4 equal c_xAtom[1530][3]
variable 	 x18_1 equal c_xAtom[1531][1]
variable 	 y18_1 equal c_xAtom[1531][2]
variable 	 z18_1 equal c_xAtom[1531][3]
variable 	 x18_2 equal c_xAtom[1560][1]
variable 	 y18_2 equal c_xAtom[1560][2]
variable 	 z18_2 equal c_xAtom[1560][3]
variable 	 x18_3 equal c_xAtom[1590][1]
variable 	 y18_3 equal c_xAtom[1590][2]
variable 	 z18_3 equal c_xAtom[1590][3]
variable 	 x18_4 equal c_xAtom[1620][1]
variable 	 y18_4 equal c_xAtom[1620][2]
variable 	 z18_4 equal c_xAtom[1620][3]
variable 	 x19_1 equal c_xAtom[1621][1]
variable 	 y19_1 equal c_xAtom[1621][2]
variable 	 z19_1 equal c_xAtom[1621][3]
variable 	 x19_2 equal c_xAtom[1650][1]
variable 	 y19_2 equal c_xAtom[1650][2]
variable 	 z19_2 equal c_xAtom[1650][3]
variable 	 x19_3 equal c_xAtom[1680][1]
variable 	 y19_3 equal c_xAtom[1680][2]
variable 	 z19_3 equal c_xAtom[1680][3]
variable 	 x19_4 equal c_xAtom[1710][1]
variable 	 y19_4 equal c_xAtom[1710][2]
variable 	 z19_4 equal c_xAtom[1710][3]
variable 	 x20_1 equal c_xAtom[1711][1]
variable 	 y20_1 equal c_xAtom[1711][2]
variable 	 z20_1 equal c_xAtom[1711][3]
variable 	 x20_2 equal c_xAtom[1740][1]
variable 	 y20_2 equal c_xAtom[1740][2]
variable 	 z20_2 equal c_xAtom[1740][3]
variable 	 x20_3 equal c_xAtom[1770][1]
variable 	 y20_3 equal c_xAtom[1770][2]
variable 	 z20_3 equal c_xAtom[1770][3]
variable 	 x20_4 equal c_xAtom[1800][1]
variable 	 y20_4 equal c_xAtom[1800][2]
variable 	 z20_4 equal c_xAtom[1800][3]



dump		total all custom ${Ndump} Positions_Traject_Series_P_0_01_M_100.lammpstrj id type x y z 
dump_modify	total sort id


#dump            total all xyz ${Ndump} dump.equi.xyz
#dump_modify 	total flush yes

#dump			total all xyz ${Ndump} positions_${epsilon}_series.txt
#dump_modify 	total flush yes
#dump_modify	total sort id


variable	epsilon1 equal 0.1
variable	epsilon2 equal ${epsilon}

variable	epsilon_11 equal ${epsilon1}

variable	epsilon_23 equal ${epsilon2}
variable	epsilon_45 equal ${epsilon2}
variable	epsilon_67 equal ${epsilon2}
variable	epsilon_89 equal ${epsilon2}
variable	epsilon_1011 equal ${epsilon2}
variable	epsilon_1213 equal ${epsilon2}
variable	epsilon_1415 equal ${epsilon2}
variable	epsilon_1617 equal ${epsilon2}
variable	epsilon_1819 equal ${epsilon2}
variable	epsilon_2021 equal ${epsilon2}
variable	epsilon_2223 equal ${epsilon2}
variable	epsilon_2425 equal ${epsilon2}
variable	epsilon_2627 equal ${epsilon2}
variable	epsilon_2829 equal ${epsilon2}
variable	epsilon_3031 equal ${epsilon2}
variable	epsilon_3233 equal ${epsilon2}
variable	epsilon_3435 equal ${epsilon2}
variable	epsilon_3637 equal ${epsilon2}
variable	epsilon_3839 equal ${epsilon2}
variable	epsilon_4041 equal ${epsilon2}
variable	epsilon_4243 equal ${epsilon2}
variable	epsilon_4445 equal ${epsilon2}
variable	epsilon_4647 equal ${epsilon2}
variable	epsilon_4849 equal ${epsilon2}
variable	epsilon_5051 equal ${epsilon2}
variable	epsilon_5253 equal ${epsilon2}
variable	epsilon_5455 equal ${epsilon2}
variable	epsilon_5657 equal ${epsilon2}
variable	epsilon_5859 equal ${epsilon2}
variable	epsilon_6061 equal ${epsilon2}
variable	epsilon_6263 equal ${epsilon2}
variable	epsilon_6465 equal ${epsilon2}
variable	epsilon_6667 equal ${epsilon2}
variable	epsilon_6869 equal ${epsilon2}
variable	epsilon_7071 equal ${epsilon2}
variable	epsilon_7273 equal ${epsilon2}
variable	epsilon_7475 equal ${epsilon2}
variable	epsilon_7677 equal ${epsilon2}
variable	epsilon_7879 equal ${epsilon2}
variable	epsilon_8081 equal ${epsilon2}
variable	epsilon_8283 equal ${epsilon2}
variable	epsilon_8485 equal ${epsilon2}
variable	epsilon_8687 equal ${epsilon2}
variable	epsilon_8889 equal ${epsilon2}
variable	epsilon_9091 equal ${epsilon2}
variable	epsilon_9293 equal ${epsilon2}
variable	epsilon_9495 equal ${epsilon2}
variable	epsilon_9697 equal ${epsilon2}
variable	epsilon_9899 equal ${epsilon2}
variable	epsilon_100101 equal ${epsilon2}
variable	epsilon_102103 equal ${epsilon2}
variable	epsilon_104105 equal ${epsilon2}
variable	epsilon_106107 equal ${epsilon2}
variable	epsilon_108109 equal ${epsilon2}
variable	epsilon_110111 equal ${epsilon2}
variable	epsilon_112113 equal ${epsilon2}
variable	epsilon_114115 equal ${epsilon2}
variable	epsilon_116117 equal ${epsilon2}
variable	epsilon_118119 equal ${epsilon2}
variable	epsilon_120121 equal ${epsilon2}
variable	epsilon_122123 equal ${epsilon2}
variable	epsilon_124125 equal ${epsilon2}
variable	epsilon_126127 equal ${epsilon2}
variable	epsilon_128129 equal ${epsilon2}
variable	epsilon_130131 equal ${epsilon2}
variable	epsilon_132133 equal ${epsilon2}
variable	epsilon_134135 equal ${epsilon2}
variable	epsilon_136137 equal ${epsilon2}
variable	epsilon_138139 equal ${epsilon2}
variable	epsilon_140141 equal ${epsilon2}
variable	epsilon_142143 equal ${epsilon2}
variable	epsilon_144145 equal ${epsilon2}
variable	epsilon_146147 equal ${epsilon2}
variable	epsilon_148149 equal ${epsilon2}
variable	epsilon_150151 equal ${epsilon2}
variable	epsilon_152153 equal ${epsilon2}
variable	epsilon_154155 equal ${epsilon2}
variable	epsilon_156157 equal ${epsilon2}
variable	epsilon_158159 equal ${epsilon2}
variable	epsilon_160161 equal ${epsilon2}
variable	epsilon_162163 equal ${epsilon2}
variable	epsilon_164165 equal ${epsilon2}
variable	epsilon_166167 equal ${epsilon2}
variable	epsilon_168169 equal ${epsilon2}
variable	epsilon_170171 equal ${epsilon2}
variable	epsilon_172173 equal ${epsilon2}
variable	epsilon_174175 equal ${epsilon2}
variable	epsilon_176177 equal ${epsilon2}
variable	epsilon_178179 equal ${epsilon2}
variable	epsilon_180181 equal ${epsilon2}
variable	epsilon_182183 equal ${epsilon2}
variable	epsilon_184185 equal ${epsilon2}
variable	epsilon_186187 equal ${epsilon2}
variable	epsilon_188189 equal ${epsilon2}
variable	epsilon_190191 equal ${epsilon2}
variable	epsilon_192193 equal ${epsilon2}
variable	epsilon_194195 equal ${epsilon2}
variable	epsilon_196197 equal ${epsilon2}
variable	epsilon_198199 equal ${epsilon2}
variable	epsilon_200201 equal ${epsilon2}
variable	epsilon_202203 equal ${epsilon2}
variable	epsilon_204205 equal ${epsilon2}
variable	epsilon_206207 equal ${epsilon2}
variable	epsilon_208209 equal ${epsilon2}
variable	epsilon_210211 equal ${epsilon2}
variable	epsilon_212213 equal ${epsilon2}
variable	epsilon_214215 equal ${epsilon2}
variable	epsilon_216217 equal ${epsilon2}
variable	epsilon_218219 equal ${epsilon2}
variable	epsilon_220221 equal ${epsilon2}
variable	epsilon_222223 equal ${epsilon2}
variable	epsilon_224225 equal ${epsilon2}
variable	epsilon_226227 equal ${epsilon2}
variable	epsilon_228229 equal ${epsilon2}
variable	epsilon_230231 equal ${epsilon2}
variable	epsilon_232233 equal ${epsilon2}
variable	epsilon_234235 equal ${epsilon2}
variable	epsilon_236237 equal ${epsilon2}
variable	epsilon_238239 equal ${epsilon2}
variable	epsilon_240241 equal ${epsilon2}
variable	epsilon_242243 equal ${epsilon2}
variable	epsilon_244245 equal ${epsilon2}
variable	epsilon_246247 equal ${epsilon2}
variable	epsilon_248249 equal ${epsilon2}
variable	epsilon_250251 equal ${epsilon2}
variable	epsilon_252253 equal ${epsilon2}
variable	epsilon_254255 equal ${epsilon2}
variable	epsilon_256257 equal ${epsilon2}
variable	epsilon_258259 equal ${epsilon2}
variable	epsilon_260261 equal ${epsilon2}
variable	epsilon_262263 equal ${epsilon2}
variable	epsilon_264265 equal ${epsilon2}
variable	epsilon_266267 equal ${epsilon2}
variable	epsilon_268269 equal ${epsilon2}
variable	epsilon_270271 equal ${epsilon2}
variable	epsilon_272273 equal ${epsilon2}
variable	epsilon_274275 equal ${epsilon2}
variable	epsilon_276277 equal ${epsilon2}
variable	epsilon_278279 equal ${epsilon2}
variable	epsilon_280281 equal ${epsilon2}
variable	epsilon_282283 equal ${epsilon2}
variable	epsilon_284285 equal ${epsilon2}
variable	epsilon_286287 equal ${epsilon2}
variable	epsilon_288289 equal ${epsilon2}
variable	epsilon_290291 equal ${epsilon2}
variable	epsilon_292293 equal ${epsilon2}
variable	epsilon_294295 equal ${epsilon2}
variable	epsilon_296297 equal ${epsilon2}
variable	epsilon_298299 equal ${epsilon2}
variable	epsilon_300301 equal ${epsilon2}
variable	epsilon_302303 equal ${epsilon2}
variable	epsilon_304305 equal ${epsilon2}
variable	epsilon_306307 equal ${epsilon2}
variable	epsilon_308309 equal ${epsilon2}
variable	epsilon_310311 equal ${epsilon2}
variable	epsilon_312313 equal ${epsilon2}
variable	epsilon_314315 equal ${epsilon2}
variable	epsilon_316317 equal ${epsilon2}
variable	epsilon_318319 equal ${epsilon2}
variable	epsilon_320321 equal ${epsilon2}
variable	epsilon_322323 equal ${epsilon2}
variable	epsilon_324325 equal ${epsilon2}
variable	epsilon_326327 equal ${epsilon2}
variable	epsilon_328329 equal ${epsilon2}
variable	epsilon_330331 equal ${epsilon2}
variable	epsilon_332333 equal ${epsilon2}
variable	epsilon_334335 equal ${epsilon2}
variable	epsilon_336337 equal ${epsilon2}
variable	epsilon_338339 equal ${epsilon2}
variable	epsilon_340341 equal ${epsilon2}
variable	epsilon_342343 equal ${epsilon2}
variable	epsilon_344345 equal ${epsilon2}
variable	epsilon_346347 equal ${epsilon2}
variable	epsilon_348349 equal ${epsilon2}
variable	epsilon_350351 equal ${epsilon2}
variable	epsilon_352353 equal ${epsilon2}
variable	epsilon_354355 equal ${epsilon2}
variable	epsilon_356357 equal ${epsilon2}
variable	epsilon_358359 equal ${epsilon2}
variable	epsilon_360361 equal ${epsilon2}
variable	epsilon_362363 equal ${epsilon2}
variable	epsilon_364365 equal ${epsilon2}
variable	epsilon_366367 equal ${epsilon2}
variable	epsilon_368369 equal ${epsilon2}
variable	epsilon_370371 equal ${epsilon2}
variable	epsilon_372373 equal ${epsilon2}
variable	epsilon_374375 equal ${epsilon2}
variable	epsilon_376377 equal ${epsilon2}
variable	epsilon_378379 equal ${epsilon2}
variable	epsilon_380381 equal ${epsilon2}
variable	epsilon_382383 equal ${epsilon2}
variable	epsilon_384385 equal ${epsilon2}
variable	epsilon_386387 equal ${epsilon2}
variable	epsilon_388389 equal ${epsilon2}
variable	epsilon_390391 equal ${epsilon2}
variable	epsilon_392393 equal ${epsilon2}
variable	epsilon_394395 equal ${epsilon2}
variable	epsilon_396397 equal ${epsilon2}
variable	epsilon_398399 equal ${epsilon2}
variable	epsilon_400401 equal ${epsilon2}




fix 1 all npt temp 1.0 1.0  1.0 iso 0.01 0.01 10.0
#fix 1 all npt temp 1.0 1.0  1.0 iso 0.1 0.1 10.0
#fix 1 all npt temp 1.0 1.0  1.0 iso 1.0 1.0 10.0




#fix		1 all langevin 1. 1.0 1 ${RandGen}
#fix		2 all nve

######################### Start of Loop #####################################

bond_style      fene
bond_coeff      1       30.0    1.5     1.0     1.0

pair_style lj/smooth/linear 2.5
pair_coeff	* * ${epsilon_11} 1
pair_coeff	2 3 ${epsilon_23} 1
pair_coeff	4 5 ${epsilon_45} 1
pair_coeff	6 7 ${epsilon_67} 1
pair_coeff	8 9 ${epsilon_89} 1
pair_coeff	10 11 ${epsilon_1011} 1
pair_coeff	12 13 ${epsilon_1213} 1
pair_coeff	14 15 ${epsilon_1415} 1
pair_coeff	16 17 ${epsilon_1617} 1
pair_coeff	18 19 ${epsilon_1819} 1
pair_coeff	20 21 ${epsilon_2021} 1
pair_coeff	22 23 ${epsilon_2223} 1
pair_coeff	24 25 ${epsilon_2425} 1
pair_coeff	26 27 ${epsilon_2627} 1
pair_coeff	28 29 ${epsilon_2829} 1
pair_coeff	30 31 ${epsilon_3031} 1
pair_coeff	32 33 ${epsilon_3233} 1
pair_coeff	34 35 ${epsilon_3435} 1
pair_coeff	36 37 ${epsilon_3637} 1
pair_coeff	38 39 ${epsilon_3839} 1
pair_coeff	40 41 ${epsilon_4041} 1
pair_coeff	42 43 ${epsilon_4243} 1
pair_coeff	44 45 ${epsilon_4445} 1
pair_coeff	46 47 ${epsilon_4647} 1
pair_coeff	48 49 ${epsilon_4849} 1
pair_coeff	50 51 ${epsilon_5051} 1
pair_coeff	52 53 ${epsilon_5253} 1
pair_coeff	54 55 ${epsilon_5455} 1
pair_coeff	56 57 ${epsilon_5657} 1
pair_coeff	58 59 ${epsilon_5859} 1
pair_coeff	60 61 ${epsilon_6061} 1
pair_coeff	62 63 ${epsilon_6263} 1
pair_coeff	64 65 ${epsilon_6465} 1
pair_coeff	66 67 ${epsilon_6667} 1
pair_coeff	68 69 ${epsilon_6869} 1
pair_coeff	70 71 ${epsilon_7071} 1
pair_coeff	72 73 ${epsilon_7273} 1
pair_coeff	74 75 ${epsilon_7475} 1
pair_coeff	76 77 ${epsilon_7677} 1
pair_coeff	78 79 ${epsilon_7879} 1
pair_coeff	80 81 ${epsilon_8081} 1
pair_coeff	82 83 ${epsilon_8283} 1
pair_coeff	84 85 ${epsilon_8485} 1
pair_coeff	86 87 ${epsilon_8687} 1
pair_coeff	88 89 ${epsilon_8889} 1
pair_coeff	90 91 ${epsilon_9091} 1
pair_coeff	92 93 ${epsilon_9293} 1
pair_coeff	94 95 ${epsilon_9495} 1
pair_coeff	96 97 ${epsilon_9697} 1
pair_coeff	98 99 ${epsilon_9899} 1
pair_coeff	100 101 ${epsilon_100101} 1
pair_coeff	102 103 ${epsilon_102103} 1
pair_coeff	104 105 ${epsilon_104105} 1
pair_coeff	106 107 ${epsilon_106107} 1
pair_coeff	108 109 ${epsilon_108109} 1
pair_coeff	110 111 ${epsilon_110111} 1
pair_coeff	112 113 ${epsilon_112113} 1
pair_coeff	114 115 ${epsilon_114115} 1
pair_coeff	116 117 ${epsilon_116117} 1
pair_coeff	118 119 ${epsilon_118119} 1
pair_coeff	120 121 ${epsilon_120121} 1
pair_coeff	122 123 ${epsilon_122123} 1
pair_coeff	124 125 ${epsilon_124125} 1
pair_coeff	126 127 ${epsilon_126127} 1
pair_coeff	128 129 ${epsilon_128129} 1
pair_coeff	130 131 ${epsilon_130131} 1
pair_coeff	132 133 ${epsilon_132133} 1
pair_coeff	134 135 ${epsilon_134135} 1
pair_coeff	136 137 ${epsilon_136137} 1
pair_coeff	138 139 ${epsilon_138139} 1
pair_coeff	140 141 ${epsilon_140141} 1
pair_coeff	142 143 ${epsilon_142143} 1
pair_coeff	144 145 ${epsilon_144145} 1
pair_coeff	146 147 ${epsilon_146147} 1
pair_coeff	148 149 ${epsilon_148149} 1
pair_coeff	150 151 ${epsilon_150151} 1
pair_coeff	152 153 ${epsilon_152153} 1
pair_coeff	154 155 ${epsilon_154155} 1
pair_coeff	156 157 ${epsilon_156157} 1
pair_coeff	158 159 ${epsilon_158159} 1
pair_coeff	160 161 ${epsilon_160161} 1
pair_coeff	162 163 ${epsilon_162163} 1
pair_coeff	164 165 ${epsilon_164165} 1
pair_coeff	166 167 ${epsilon_166167} 1
pair_coeff	168 169 ${epsilon_168169} 1
pair_coeff	170 171 ${epsilon_170171} 1
pair_coeff	172 173 ${epsilon_172173} 1
pair_coeff	174 175 ${epsilon_174175} 1
pair_coeff	176 177 ${epsilon_176177} 1
pair_coeff	178 179 ${epsilon_178179} 1
pair_coeff	180 181 ${epsilon_180181} 1
pair_coeff	182 183 ${epsilon_182183} 1
pair_coeff	184 185 ${epsilon_184185} 1
pair_coeff	186 187 ${epsilon_186187} 1
pair_coeff	188 189 ${epsilon_188189} 1
pair_coeff	190 191 ${epsilon_190191} 1
pair_coeff	192 193 ${epsilon_192193} 1
pair_coeff	194 195 ${epsilon_194195} 1
pair_coeff	196 197 ${epsilon_196197} 1
pair_coeff	198 199 ${epsilon_198199} 1
pair_coeff	200 201 ${epsilon_200201} 1
pair_coeff	202 203 ${epsilon_202203} 1
pair_coeff	204 205 ${epsilon_204205} 1
pair_coeff	206 207 ${epsilon_206207} 1
pair_coeff	208 209 ${epsilon_208209} 1
pair_coeff	210 211 ${epsilon_210211} 1
pair_coeff	212 213 ${epsilon_212213} 1
pair_coeff	214 215 ${epsilon_214215} 1
pair_coeff	216 217 ${epsilon_216217} 1
pair_coeff	218 219 ${epsilon_218219} 1
pair_coeff	220 221 ${epsilon_220221} 1
pair_coeff	222 223 ${epsilon_222223} 1
pair_coeff	224 225 ${epsilon_224225} 1
pair_coeff	226 227 ${epsilon_226227} 1
pair_coeff	228 229 ${epsilon_228229} 1
pair_coeff	230 231 ${epsilon_230231} 1
pair_coeff	232 233 ${epsilon_232233} 1
pair_coeff	234 235 ${epsilon_234235} 1
pair_coeff	236 237 ${epsilon_236237} 1
pair_coeff	238 239 ${epsilon_238239} 1
pair_coeff	240 241 ${epsilon_240241} 1
pair_coeff	242 243 ${epsilon_242243} 1
pair_coeff	244 245 ${epsilon_244245} 1
pair_coeff	246 247 ${epsilon_246247} 1
pair_coeff	248 249 ${epsilon_248249} 1
pair_coeff	250 251 ${epsilon_250251} 1
pair_coeff	252 253 ${epsilon_252253} 1
pair_coeff	254 255 ${epsilon_254255} 1
pair_coeff	256 257 ${epsilon_256257} 1
pair_coeff	258 259 ${epsilon_258259} 1
pair_coeff	260 261 ${epsilon_260261} 1
pair_coeff	262 263 ${epsilon_262263} 1
pair_coeff	264 265 ${epsilon_264265} 1
pair_coeff	266 267 ${epsilon_266267} 1
pair_coeff	268 269 ${epsilon_268269} 1
pair_coeff	270 271 ${epsilon_270271} 1
pair_coeff	272 273 ${epsilon_272273} 1
pair_coeff	274 275 ${epsilon_274275} 1
pair_coeff	276 277 ${epsilon_276277} 1
pair_coeff	278 279 ${epsilon_278279} 1
pair_coeff	280 281 ${epsilon_280281} 1
pair_coeff	282 283 ${epsilon_282283} 1
pair_coeff	284 285 ${epsilon_284285} 1
pair_coeff	286 287 ${epsilon_286287} 1
pair_coeff	288 289 ${epsilon_288289} 1
pair_coeff	290 291 ${epsilon_290291} 1
pair_coeff	292 293 ${epsilon_292293} 1
pair_coeff	294 295 ${epsilon_294295} 1
pair_coeff	296 297 ${epsilon_296297} 1
pair_coeff	298 299 ${epsilon_298299} 1
pair_coeff	300 301 ${epsilon_300301} 1
pair_coeff	302 303 ${epsilon_302303} 1
pair_coeff	304 305 ${epsilon_304305} 1
pair_coeff	306 307 ${epsilon_306307} 1
pair_coeff	308 309 ${epsilon_308309} 1
pair_coeff	310 311 ${epsilon_310311} 1
pair_coeff	312 313 ${epsilon_312313} 1
pair_coeff	314 315 ${epsilon_314315} 1
pair_coeff	316 317 ${epsilon_316317} 1
pair_coeff	318 319 ${epsilon_318319} 1
pair_coeff	320 321 ${epsilon_320321} 1
pair_coeff	322 323 ${epsilon_322323} 1
pair_coeff	324 325 ${epsilon_324325} 1
pair_coeff	326 327 ${epsilon_326327} 1
pair_coeff	328 329 ${epsilon_328329} 1
pair_coeff	330 331 ${epsilon_330331} 1
pair_coeff	332 333 ${epsilon_332333} 1
pair_coeff	334 335 ${epsilon_334335} 1
pair_coeff	336 337 ${epsilon_336337} 1
pair_coeff	338 339 ${epsilon_338339} 1
pair_coeff	340 341 ${epsilon_340341} 1
pair_coeff	342 343 ${epsilon_342343} 1
pair_coeff	344 345 ${epsilon_344345} 1
pair_coeff	346 347 ${epsilon_346347} 1
pair_coeff	348 349 ${epsilon_348349} 1
pair_coeff	350 351 ${epsilon_350351} 1
pair_coeff	352 353 ${epsilon_352353} 1
pair_coeff	354 355 ${epsilon_354355} 1
pair_coeff	356 357 ${epsilon_356357} 1
pair_coeff	358 359 ${epsilon_358359} 1
pair_coeff	360 361 ${epsilon_360361} 1
pair_coeff	362 363 ${epsilon_362363} 1
pair_coeff	364 365 ${epsilon_364365} 1
pair_coeff	366 367 ${epsilon_366367} 1
pair_coeff	368 369 ${epsilon_368369} 1
pair_coeff	370 371 ${epsilon_370371} 1
pair_coeff	372 373 ${epsilon_372373} 1
pair_coeff	374 375 ${epsilon_374375} 1
pair_coeff	376 377 ${epsilon_376377} 1
pair_coeff	378 379 ${epsilon_378379} 1
pair_coeff	380 381 ${epsilon_380381} 1
pair_coeff	382 383 ${epsilon_382383} 1
pair_coeff	384 385 ${epsilon_384385} 1
pair_coeff	386 387 ${epsilon_386387} 1
pair_coeff	388 389 ${epsilon_388389} 1
pair_coeff	390 391 ${epsilon_390391} 1
pair_coeff	392 393 ${epsilon_392393} 1
pair_coeff	394 395 ${epsilon_394395} 1
pair_coeff	396 397 ${epsilon_396397} 1
pair_coeff	398 399 ${epsilon_398399} 1
pair_coeff	400 401 ${epsilon_400401} 1


#special_bonds	lj 0.0 0.0 0.0
special_bonds   fene

neighbor	2.0 bin
neigh_modify    every 1 delay 10 check yes

restart         ${Nrestart} restart.${root}

thermo_style	custom step temp pe ke etotal v_epsilon vol press
thermo		${Nf}




fix    extra1 all print 100 "${x1_1} ${y1_1} ${z1_1} ${x1_2} ${y1_2} ${z1_2} ${x1_3} ${y1_3} ${z1_3} ${x1_4} ${y1_4} ${z1_4}  " screen no title "" file N90_E_11_Z_1_P_0_01_M_100_Series_chain_1.txt
fix    extra2 all print 100 "${x2_1} ${y2_1} ${z2_1} ${x2_2} ${y2_2} ${z2_2} ${x2_3} ${y2_3} ${z2_3} ${x2_4} ${y2_4} ${z2_4}  " screen no title "" file N90_E_11_Z_1_P_0_01_M_100_Series_chain_2.txt
fix    extra3 all print 100 "${x3_1} ${y3_1} ${z3_1} ${x3_2} ${y3_2} ${z3_2} ${x3_3} ${y3_3} ${z3_3} ${x3_4} ${y3_4} ${z3_4}  " screen no title "" file N90_E_11_Z_1_P_0_01_M_100_Series_chain_3.txt
fix    extra4 all print 100 "${x4_1} ${y4_1} ${z4_1} ${x4_2} ${y4_2} ${z4_2} ${x4_3} ${y4_3} ${z4_3} ${x4_4} ${y4_4} ${z4_4}  " screen no title "" file N90_E_11_Z_1_P_0_01_M_100_Series_chain_4.txt
fix    extra5 all print 100 "${x5_1} ${y5_1} ${z5_1} ${x5_2} ${y5_2} ${z5_2} ${x5_3} ${y5_3} ${z5_3} ${x5_4} ${y5_4} ${z5_4}  " screen no title "" file N90_E_11_Z_1_P_0_01_M_100_Series_chain_5.txt
fix    extra6 all print 100 "${x6_1} ${y6_1} ${z6_1} ${x6_2} ${y6_2} ${z6_2} ${x6_3} ${y6_3} ${z6_3} ${x6_4} ${y6_4} ${z6_4}  " screen no title "" file N90_E_11_Z_1_P_0_01_M_100_Series_chain_6.txt
fix    extra7 all print 100 "${x7_1} ${y7_1} ${z7_1} ${x7_2} ${y7_2} ${z7_2} ${x7_3} ${y7_3} ${z7_3} ${x7_4} ${y7_4} ${z7_4}  " screen no title "" file N90_E_11_Z_1_P_0_01_M_100_Series_chain_7.txt
fix    extra8 all print 100 "${x8_1} ${y8_1} ${z8_1} ${x8_2} ${y8_2} ${z8_2} ${x8_3} ${y8_3} ${z8_3} ${x8_4} ${y8_4} ${z8_4}  " screen no title "" file N90_E_11_Z_1_P_0_01_M_100_Series_chain_8.txt
fix    extra9 all print 100 "${x9_1} ${y9_1} ${z9_1} ${x9_2} ${y9_2} ${z9_2} ${x9_3} ${y9_3} ${z9_3} ${x9_4} ${y9_4} ${z9_4}  " screen no title "" file N90_E_11_Z_1_P_0_01_M_100_Series_chain_9.txt
fix    extra10 all print 100 "${x10_1} ${y10_1} ${z10_1} ${x10_2} ${y10_2} ${z10_2} ${x10_3} ${y10_3} ${z10_3} ${x10_4} ${y10_4} ${z10_4}  " screen no title "" file N90_E_11_Z_1_P_0_01_M_100_Series_chain_10.txt
fix    extra11 all print 100 "${x11_1} ${y11_1} ${z11_1} ${x11_2} ${y11_2} ${z11_2} ${x11_3} ${y11_3} ${z11_3} ${x11_4} ${y11_4} ${z11_4}  " screen no title "" file N90_E_11_Z_1_P_0_01_M_100_Series_chain_11.txt
fix    extra12 all print 100 "${x12_1} ${y12_1} ${z12_1} ${x12_2} ${y12_2} ${z12_2} ${x12_3} ${y12_3} ${z12_3} ${x12_4} ${y12_4} ${z12_4}  " screen no title "" file N90_E_11_Z_1_P_0_01_M_100_Series_chain_12.txt